Route #1: 54 8 76 41 61 46 42 51 12 65 69 47 98 25 127
Route #2: 20 22 34 7 44 75 33 3 64 18 19 67 62 114 96 102
Route #3: 35 36 94 66 56 123 43 142 95 129 88 106 100 31
Route #4: 78 79 52 50 45 152 136 91 120 158 81 74 92 155 72 59
Route #5: 156 115 141 119 144 105 126 138 89 149 139 10 29 15
Route #6: 97 9 21 1 55 60 128 110 153 160 84 122 107 133 14
Route #7: 117 27 124 134 148 109 2 82 118 30 40 157 112 132 93
Route #8: 103 159 147 121 85 143 17 77 161 83 104 63 113 70
Route #9: 135 87 4 101 151 146 39 137 108 125 150 145 90 86 53 80
Route #10: 28 26 48 73 38 11 68 58 130 99 140 154 111 116
Route #11: 23 24 49 6 37 131 57 32 16 5 71 13
Cost 16507
